%nprocs=8 
%mem=16GB 
%chk=/home/mateus/github/db_singletoxygen/chk/molecule_48.chk 
#opt freq blyp/6-31g(d,p) 

molecule_48 CCCC[N+](=c1cc(C)c2-c(sc3c(n2)c(C)cc(N(CC)CC)c3)c1)CCCC	


0 1
C          0.96743        0.13301       -0.02594
C          2.49223        0.27238        0.04753
C          3.02706       -0.96498       -0.60493
C          4.48775       -1.20941       -0.73424
N          4.90074       -2.53530       -1.43461
C          3.96973       -3.59245       -1.99062
C          2.52386       -3.31031       -1.84143
C          1.51776       -4.28568       -2.35563
C          0.15994       -3.66356       -2.02763
C          6.15704       -2.78127       -1.56429
C          6.72472       -4.00241       -2.20559
C          8.03417       -4.23925       -2.31867
C          8.54858       -5.48779       -2.96332
C          9.03858       -3.26751       -1.80497
N         10.29527       -3.54068       -1.94275
C         11.26736       -2.64281       -1.46999
C         12.63737       -2.88527       -1.59229
C         13.14865       -4.13243       -2.24395
C         13.59280       -1.94148       -1.09430
C         13.23025       -0.74471       -0.46918
N         14.08183        0.22086        0.04073
C         13.70766        1.50858        0.71472
C         12.25646        1.89327        0.90937
C         15.52594       -0.05562       -0.09652
C         16.42722        1.02642        0.47525
C         11.87678       -0.59936       -0.39978
C         10.92365       -1.46883       -0.85749
S          9.34627       -0.82429       -0.52500
C          8.42477       -2.06312       -1.17795
C          7.13888       -1.83472       -1.06484
H          0.48056        0.99308        0.42752
H          0.62740       -0.77754        0.48751
H          0.62739        0.04225       -1.06733
H          2.83201        0.31927        1.08412
H          2.83198        1.15420       -0.49939
H          2.62857       -0.89429       -1.61304
H          2.62887       -1.75694        0.02304
H          4.92816       -1.23331        0.27090
H          4.92750       -0.39278       -1.32114
H          4.20987       -4.52217       -1.46273
H          4.20898       -3.68290       -3.05608
H          2.31077       -2.40961       -2.41111
H          2.31106       -3.27162       -0.77632
H          1.64968       -5.24323       -1.84823
H          1.64966       -4.40800       -3.43240
H          0.05105       -3.49768       -0.94653
H         -0.64513       -4.30921       -2.36805
H          0.05105       -2.67782       -2.50158
H          6.05565       -4.75424       -2.60648
H          7.72305       -6.12440       -3.29943
H          9.14433       -6.06757       -2.25263
H          9.15698       -5.24484       -3.83890
H         12.34014       -4.78288       -2.58813
H         13.75061       -4.69570       -1.52563
H         13.75684       -3.86420       -3.11218
H         14.64178       -2.19178       -1.22119
H         14.14867        2.33109        0.14329
H         14.14093        1.50412        1.71962
H         11.77485        2.01064       -0.07224
H         12.10267        2.84725        1.40928
H         11.76648        1.15396        1.55947
H         15.77282       -0.17086       -1.15957
H         15.76470       -0.99643        0.41555
H         16.25958        1.98390       -0.02780
H         17.47743        0.76064        0.34110
H         16.25183        1.15795        1.54758
H         11.41197        0.24034        0.03590
H          6.83008       -0.90872       -0.58120

