%nprocs=1 
%mem=2GB 
#hf/6-31g(d,p) 

molecule_~/github/db_singletoxygen 1

0 1
C          0.90753       -0.04772       -0.05755
C          2.42742       -0.04784       -0.04393
C          2.97058       -0.06072        1.38337
C          4.49047       -0.06084        1.39700
H          0.53738       -0.03843       -1.08754
H          0.51161        0.83501        0.45441
H          0.51161       -0.93954        0.43841
H          2.79297        0.83932       -0.57395
H          2.79297       -0.92529       -0.58987
H          2.60503       -0.94788        1.91340
H          2.60503        0.81674        1.92932
H          4.88639       -0.94357        0.88503
H          4.86063       -0.07013        2.42699
H          4.88639        0.83098        0.90104

