%nprocs=8 
%mem=16GB 
%chk=molecule_1.chk 
#opt freq b3lyp/6-31g(d,p) 

input 1

0 1
C          1.03450        0.01912        0.07291
C          2.55439        0.02837        0.08291
C          3.09755        0.99739        1.13094
C          4.61743        1.00664        1.14094
H          0.66434       -0.68015       -0.68339
H          0.63857        1.01277       -0.15944
H          0.63857       -0.29023        1.04533
H          2.91994        0.31098       -0.91113
H          2.91994       -0.98472        0.28689
H          2.73199        0.71479        2.12497
H          2.73199        2.01049        0.92695
H          5.01336        0.01299        1.37328
H          4.98759        1.70592        1.89723
H          5.01336        1.31600        0.16851

