%nprocs=8 
%mem=16GB 
%chk=/home/mateus/github/db_singletoxygen/chk/molecule_25.chk 
#opt freq blyp/6-31g(d,p) 

molecule_25 Cc1cc2c(C)cc(=O)oc2c2C=CCOc12	


0 1
C          0.96831        0.13187       -0.00162
C          2.46991        0.13201       -0.00144
C          3.14517       -1.08769        0.00591
C          4.54055       -1.15836        0.00532
C          5.26129       -2.43326        0.01071
C          4.53015       -3.74298        0.01920
C          6.60216       -2.40618        0.00851
C          7.38681       -1.16459        0.00103
O          8.61491       -1.19854       -0.00086
O          6.67438        0.02077       -0.00290
C          5.25848        0.04025       -0.00036
C          4.61282        1.28686       -0.00446
C          5.35291        2.54284       -0.01071
C          4.65270        3.67916        0.00710
C          3.15893        3.71703        0.03978
O          2.47439        2.46705       -0.02470
C          3.21096        1.31743       -0.00668
H          0.57075       -0.88980        0.00465
H          0.58927        0.62535       -0.90097
H          0.58956        0.63585        0.89213
H          2.53087       -1.97929        0.01114
H          3.44336       -3.66138        0.01993
H          4.78746       -4.31133        0.91745
H          4.78546       -4.32227       -0.87262
H          7.18851       -3.31810        0.01263
H          6.43723        2.53734       -0.02135
H          5.16999        4.63259        0.00877
H          2.79762        4.31448       -0.80303
H          2.83585        4.20920        0.96248

