%nprocs=8 
%mem=16GB 
%chk=/home/mateus/github/db_singletoxygen/chk/moleculeA_12.chk 
#opt freq blyp/6-31g(d,p) 

moleculeA_12 Cc1cc2c(c3c1occ3C)oc(=O)cc2C	


0 1
C          1.04626        0.08636       -0.06302
C          2.54335        0.07383       -0.06332
C          3.19694       -1.16732       -0.06234
C          4.58691       -1.29971       -0.06303
C          5.37863       -0.14890       -0.06355
C          4.77530        1.12339       -0.06317
C          3.38335        1.19377       -0.06407
O          2.98839        2.49983       -0.06549
C          4.11565        3.26043       -0.06424
C          5.24665        2.47072       -0.06085
C          6.66192        2.90957       -0.05480
O          6.79010       -0.25996       -0.06469
C          7.41980       -1.49258       -0.06612
O          8.64326       -1.60779       -0.06817
C          6.55882       -2.68317       -0.06454
C          5.22173       -2.61853       -0.06281
C          4.35700       -3.84356       -0.06052
H          0.65386       -0.93975       -0.06185
H          0.66561        0.57581       -0.96213
H          0.66594        0.57767        0.83523
H          2.56975       -2.05545       -0.06113
H          3.95864        4.33102       -0.06508
H          6.74478        4.00027       -0.05249
H          7.18078        2.52929       -0.94093
H          7.17326        2.52662        0.83465
H          7.08144       -3.63208       -0.06463
H          4.94646       -4.76348       -0.06018
H          3.71682       -3.86278       -0.95047
H          3.71902       -3.86078        0.83107

