%nprocs=8 
%mem=16GB 
%chk=/home/mateus/github/db_singletoxygen/chk/molecule_36.chk 
#opt freq blyp/6-31g(d,p) 

molecule_36 Cc1cc2nc3c(=O)[nH]c(=O)n(C)c3nc2cc1C	


0 1
C          0.97820       -0.11392       -0.04900
C          2.48060       -0.06905       -0.04992
C          3.21754       -1.26079       -0.05369
C          4.60574       -1.26089       -0.05811
N          5.26052       -2.43203       -0.05983
C          6.61596       -2.35598       -0.06445
C          7.37859       -3.61882       -0.06640
O          6.84574       -4.72421       -0.06288
N          8.74419       -3.49193       -0.07248
C          9.46162       -2.32853       -0.07503
O         10.68908       -2.38007       -0.07932
N          8.73488       -1.15799       -0.07250
C          9.42342        0.12135       -0.07486
C          7.32014       -1.16000       -0.06775
N          6.65434        0.02132       -0.06629
C          5.30229       -0.02761       -0.06108
C          4.56917        1.15257       -0.05701
C          3.16560        1.15463       -0.04842
C          2.41336        2.45596       -0.03447
H          0.60121       -1.14085       -0.05150
H          0.58884        0.38661       -0.94156
H          0.58877        0.38301        0.84539
H          2.70156       -2.21988       -0.05274
H          9.28057       -4.34721       -0.07415
H         10.50954       -0.01247       -0.07875
H          9.15575        0.68541        0.82408
H          9.14929        0.68555       -0.97174
H          5.11142        2.09630       -0.05969
H          3.08839        3.31653       -0.03377
H          1.79170        2.51841        0.86479
H          1.77634        2.53060       -0.92174

