%nprocs=8 
%mem=16GB 
%chk=/home/mateus/github/db_singletoxygen/chk/moleculeA_6.chk 
#opt freq blyp/6-31g(d,p) 

moleculeA_6 Cc1coc2c(C)cc3ccc(=O)oc3c12	


0 1
C          0.90881        0.00447        0.03634
C          2.38916       -0.00017        0.03590
C          3.18889        1.12623        0.03591
O          4.49781        0.79262        0.03632
C          4.56580       -0.56509        0.03665
C          5.75871       -1.29458        0.03806
C          7.12085       -0.68183        0.03974
C          5.62675       -2.68780        0.03860
C          4.37693       -3.30260        0.03725
C          4.30973       -4.75191        0.03827
C          3.12340       -5.35906        0.03714
C          1.86065       -4.60461        0.03508
O          0.78770       -5.20272        0.03423
O          1.94681       -3.21245        0.03453
C          3.20088       -2.53505        0.03569
C          3.28650       -1.12197        0.03581
H          0.52355        1.03164        0.03618
H          0.52280       -0.49612        0.92837
H          0.52230       -0.49671       -0.85511
H          2.98332        2.18864        0.03591
H          7.07197        0.40984        0.03961
H          7.66981       -1.00362       -0.85084
H          7.66743       -1.00346        0.93185
H          6.52858       -3.29773        0.04046
H          5.23379       -5.32043        0.04038
H          3.04861       -6.43992        0.03809

