%nprocs=8 
%mem=16GB 
%chk=/home/mateus/github/db_singletoxygen/chk/molecule_27.chk 
#opt freq blyp/6-31g(d,p) 

molecule_27 c1ccc2c(c1)nc1c(n2)[nH]c(=O)[nH]c1=O	


0 1
C         -3.57673       -0.69126        0.00020
C         -3.57047        0.69751        0.00193
C         -2.35402        1.38526       -0.00053
C         -1.13833        0.70965       -0.00131
C         -1.15264       -0.71299       -0.00103
C         -2.36715       -1.38394       -0.00123
N         -0.01703       -1.42973       -0.00047
C          1.13085       -0.71228       -0.00008
C          1.15821        0.67303       -0.00067
N          0.02388        1.40462       -0.00151
N          2.36971        1.35478       -0.00027
C          3.57730        0.72803       -0.00014
O          4.63266        1.35203        0.00004
N          3.55086       -0.63817       -0.00018
C          2.42403       -1.43016        0.00080
O          2.50735       -2.65358        0.00235
H         -4.51629       -1.23873        0.00003
H         -4.50894        1.24703        0.00523
H         -2.35773        2.47295       -0.00150
H         -2.36986       -2.47200       -0.00199
H          2.35034        2.36510       -0.00033
H          4.44168       -1.11385        0.00009

