%nprocs=8 
%mem=16GB 
%chk=/home/mateus/github/db_singletoxygen/chk/molecule_26.chk 
#opt freq blyp/6-31g(d,p) 

molecule_26 COc1c2ccoc2cc2oc(C)cc(=O)c12	


0 1
C          1.09375       -0.00592       -0.13348
O          2.49524        0.18983       -0.01347
C          3.06680        1.08086        0.85392
C          4.29139        1.66078        0.37507
C          4.97690        1.76056       -0.88532
C          6.11581        2.50838       -0.67373
O          6.23121        2.81824        0.63933
C          5.12856        2.32610        1.26352
C          4.87283        2.48781        2.61226
C          3.60177        2.10220        3.04211
O          3.33717        2.48249        4.35086
C          2.08727        2.23380        4.87088
C          1.80027        2.72330        6.25487
C          1.13826        1.58714        4.20189
C          1.36421        1.14811        2.82909
O          0.37326        0.66434        2.29731
C          2.68942        1.41556        2.19721
H          0.90900       -0.74172       -0.92469
H          0.58619        0.92133       -0.41485
H          0.65883       -0.50876        0.72366
H          4.65975        1.38632       -1.84861
H          6.90778        2.88669       -1.30918
H          5.59409        2.96159        3.26670
H          2.64596        3.25470        6.69633
H          1.54774        1.87697        6.90388
H          0.93908        3.40368        6.24636
H          0.15638        1.39471        4.61494

