%nprocs=8 
%mem=16GB 
%chk=/home/mateus/github/db_singletoxygen/chk/molecule_32.chk 
#opt freq blyp/6-31g(d,p) 

molecule_32 Cc1c2c(ccc1)nc1c(n2)c(=O)[nH]c(=O)[nH]1	


0 1
C          1.05651        0.07839        0.06111
C          2.56387        0.09323        0.05980
C          3.28089        1.29274        0.05637
C          4.70638        1.27703        0.04995
C          5.35040        0.04453        0.04645
C          4.63367       -1.15458        0.05164
C          3.24469       -1.12991        0.06000
N          5.43398        2.42569        0.04687
C          4.73404        3.58096        0.05061
C          3.35156        3.58075        0.05683
N          2.61043        2.45400        0.05945
C          2.64800        4.87626        0.06086
O          1.42419        4.96732        0.06724
N          3.44883        5.99229        0.05700
C          4.81558        6.00296        0.05028
O          5.44714        7.05336        0.04669
N          5.43129        4.78653        0.04778
H          0.61869        1.08145        0.05859
H          0.68782       -0.43556        0.95458
H          0.68753       -0.43914       -0.83031
H          6.43768        0.01124        0.03996
H          5.15860       -2.10704        0.04866
H          2.68649       -2.06447        0.06585
H          2.97817        6.88551        0.05926
H          6.44167        4.76060        0.04310

