%nprocs=8 
%mem=16GB 
#opt freq blyp/6-31g(d,p) 

molecule_/home/mateus/github/db_singletoxygen 0

0 1
C          0.98367       -0.01255       -0.09711
C          2.49573       -0.01255       -0.09711
H          0.59930       -0.94775        0.32084
H          0.59930        0.09309       -1.11599
H          0.59930        0.81700        0.50382
H          2.88010       -0.84211       -0.69804
H          2.88010       -0.11820        0.92177
H          2.88010        0.92265       -0.51506

