%nprocs=8 
%mem=16GB 
%chk=/home/mateus/github/db_singletoxygen/chk/molecule_0.chk 
#opt freq blyp/6-31g(d,p) 

molecule_0 CC(=O)c1cc2ccc3occc3c2oc1=O	


0 1
C          1.02409       -0.07239       -0.06616
C          2.53285       -0.08794       -0.05711
O          3.16481       -0.50757       -1.02885
C          3.25732        0.48515        1.11662
C          4.34628        1.22313        0.85193
C          5.15490        1.77097        1.93159
C          6.30362        2.51242        1.64205
C          7.11076        3.02611        2.66126
C          6.71596        2.76242        3.97029
O          7.37870        3.18113        5.08108
C          6.68290        2.72373        6.15252
C          5.57626        2.01165        5.74244
C          5.58348        2.03102        4.31737
C          4.78917        1.52877        3.26355
O          3.61625        0.77428        3.52458
C          2.82584        0.24127        2.50558
O          1.82133       -0.41433        2.76705
H          0.66456       -0.53829       -0.98993
H          0.66303        0.95887       -0.03840
H          0.61073       -0.64794        0.76154
H          4.67387        1.41111       -0.16827
H          6.59249        2.69583        0.60903
H          8.00503        3.59908        2.44822
H          7.09791        2.98452        7.11739
H          4.85844        1.54039        6.39898

