%nprocs=8 
%mem=16GB 
%chk=/home/mateus/github/db_singletoxygen/chk/molecule_17.chk 
#opt freq blyp/6-31g(d,p) 

molecule_17 c1cc(=O)oc2cc3c(cc[se]3)cc12	


0 1
C         -2.08700        1.39900        0.04100
C         -3.31800        0.80300       -0.12900
C         -3.42200       -0.57400       -0.20300
O         -4.55842       -1.11994       -0.36326
O         -2.28500       -1.35500       -0.10200
C         -1.05000       -0.76300        0.06100
C          0.39600       -1.77500        0.17600
C          1.66100       -0.71800        0.03200
C          1.50100        0.64200        0.10600
C          2.69100        1.16700       -0.05000
C          3.57000        0.23900       -0.21300
Se         2.98800       -0.94700       -0.17000
C          0.29000        1.26600        0.31100
C         -0.93500        0.61900        0.13800
H         -2.01739        2.42714        0.09677
H         -4.16587        1.38687       -0.20139
H          0.44085       -2.79799        0.30444
H          2.89518        2.17858       -0.04331
H          4.57955        0.39826       -0.35603
H          0.28827        2.25512        0.60537

