%nprocs=8 
%mem=16GB 
%chk=/home/mateus/github/db_singletoxygen/chk/moleculeA_11.chk 
#opt freq blyp/6-31g(d,p) 

moleculeA_11 Cc1cc2c3oc(=O)cc(C)c3cc(C)c2s1	


0 1
C          0.95227       -0.23705        0.03474
C          2.43468       -0.23527        0.03450
C          3.37691       -1.24641        0.03472
C          4.73696       -0.74410        0.03467
C          6.01312       -1.37629        0.03526
O          6.10783       -2.79889        0.03430
C          7.32984       -3.45880        0.03349
O          7.42367       -4.68562        0.03265
C          8.53884       -2.62524        0.03600
C          8.50232       -1.28707        0.04025
C          9.75284       -0.45683        0.05047
C          7.19695       -0.61645        0.03697
C          7.11127        0.77722        0.03562
C          5.88623        1.43982        0.03400
C          5.80365        2.93661        0.03291
C          4.72493        0.65137        0.03416
S          3.14341        1.29687        0.03375
H          0.53828       -1.24376        0.03538
H          0.58466        0.29926       -0.84961
H          0.58486        0.30027        0.91857
H          3.12339       -2.30090        0.03529
H          9.47774       -3.16830        0.03669
H         10.65755       -1.07071        0.05447
H          9.78422        0.17766        0.94403
H          9.79594        0.18417       -0.83780
H          8.00656        1.39262        0.03566
H          6.78862        3.40505        0.03262
H          5.26133        3.27197        0.92402
H          5.26144        3.27072       -0.85874

