%nprocs=8 
%mem=16GB 
%chk=/home/mateus/github/db_singletoxygen/chk/moleculeA_0.chk 
#opt freq blyp/6-31g(d,p) 

moleculeA_0 CC(=O)c1cc2ccc3occc3c2oc1=O	


0 1
C          1.05843       -0.07049       -0.06385
C          2.56730       -0.07125       -0.04749
O          3.20429       -1.07169       -0.38189
C          3.28023        1.19542        0.29234
C          4.33046        1.52097       -0.47586
C          5.09496        2.73182       -0.21469
C          6.19013        3.05637       -1.01974
C          6.94620        4.20811       -0.78460
C          6.55664        5.00922        0.28560
O          7.17542        6.16071        0.65896
C          6.50292        6.63967        1.73572
C          5.45399        5.80648        2.06067
C          5.47583        4.73617        1.11964
C          4.73134        3.56623        0.85252
O          3.61059        3.21064        1.64781
C          2.86487        2.05379        1.41667
O          1.91123        1.76407        2.13387
H          0.69890       -1.06852       -0.33571
H          0.69726        0.64005       -0.81210
H          0.64665        0.16368        0.91751
H          4.64714        0.89213       -1.30496
H          6.47408        2.40883       -1.84692
H          7.79805        4.46826       -1.40108
H          6.88852        7.56376        2.14640
H          4.76452        5.96094        2.87867

