%nprocs=8 
%mem=16GB 
%chk=/home/mateus/github/db_singletoxygen/chk/molecule_40.chk 
#opt freq blyp/6-31g(d,p) 

molecule_40 Cc1cc2c(cc1C)n(c1-c(c(=O)[nH]c(=O)n1)n2)C[C@@H]([C@@H]([C@@H](CO)O)O)O	


0 1
C          0.95372       -0.11886        0.01448
C          2.43763       -0.08460       -0.14430
C          3.24761       -1.23743       -0.05717
C          4.65428       -1.18708       -0.16299
C          5.27933        0.04827       -0.40673
C          4.39101        1.13378       -0.66019
C          3.01567        1.13931       -0.41493
C          2.20519        2.42615       -0.41473
N          6.69465        0.13767       -0.27192
C          7.42688       -1.04358       -0.10492
N          8.73241       -1.05934       -0.03929
C          9.45396       -2.21096        0.00660
O         10.69697       -2.20214        0.00508
N          8.82817       -3.41625        0.01911
C          7.47667       -3.61998        0.01719
O          6.96340       -4.72187        0.01469
C          6.67506       -2.34501       -0.02565
N          5.37317       -2.39259       -0.01971
C          7.47056        1.38978       -0.05083
C          6.69430        2.67429        0.15983
C          5.85223        2.64205        1.49712
C          4.74797        3.71396        1.49261
C          3.72862        3.58453        2.63617
O          3.11272        2.31150        2.79050
O          5.29834        5.03015        1.49699
O          5.39483        1.35718        1.92424
O          7.53600        3.83187        0.09745
H          0.57431       -1.13673        0.04374
H          0.50452        0.39184       -0.84621
H          0.66653        0.41388        0.92808
H          2.78250       -2.20466        0.11702
H          4.70259        2.10800       -0.95655
H          2.79687        3.33836       -0.46941
H          1.61111        2.52608        0.50256
H          1.52810        2.47788       -1.26178
H          9.42121       -4.23169        0.00352
H          8.14782        1.51437       -0.90565
H          8.13247        1.29633        0.82557
H          6.16866        2.83255       -0.77306
H          6.55011        2.90016        2.29077
H          4.24496        3.66360        0.54213
H          2.95421        4.35454        2.54385
H          4.26057        3.77493        3.56938
H          2.51362        2.11969        2.05670
H          5.96635        5.07031        2.19933
H          4.43826        1.23826        1.74504
H          7.91880        3.98386        0.97040

