%nprocs=8 
%mem=16GB 
%chk=/home/mateus/github/db_singletoxygen/chk/molecule_47.chk 
#opt freq blyp/6-31g(d,p) 

molecule_47 CC[N+](=c1cc(C)c2-c(sc3c(n2)c(C)cc(N(C)C)c3)c1)CC	


0 1
C          0.93859       -0.39018        0.30919
C          2.39080       -0.10239        0.09963
N          2.80828        1.09007       -0.76923
C          1.88241        2.04606       -1.46828
C          0.40958        1.85167       -1.32689
C          4.07784        1.30575       -0.92678
C          4.66524        2.41468       -1.73883
C          5.98126        2.60918       -1.89362
C          6.49799        3.74243       -2.73542
C          6.97476        1.70263       -1.23359
N          8.23435        1.92605       -1.40358
C          9.19836        1.09735       -0.79825
C         10.55070        1.35549       -0.99310
C         11.05093        2.49692       -1.83269
C         11.51009        0.51541       -0.38082
C         11.18680       -0.58597        0.42887
N         12.10226       -1.41718        1.03372
C         11.73164       -2.56291        1.87524
C         13.53209       -1.21301        0.87532
C          9.83766       -0.80008        0.59318
C          8.87627        0.00622        0.00490
S          7.27550       -0.53807        0.41082
C          6.36119        0.61109       -0.42819
C          5.06311        0.43510       -0.29184
H          0.79138       -1.26496        0.94745
H          0.45821       -0.63570       -0.63695
H          0.45790        0.43584        0.83154
H          2.84071       -0.99450       -0.35806
H          2.84010        0.06046        1.08921
H          2.13353        1.98725       -2.53429
H          2.13270        3.04374       -1.08775
H          0.10706        0.89577       -1.75367
H         -0.13970        2.61270       -1.88240
H          0.10671        1.96645       -0.28647
H          4.00460        3.11140       -2.24221
H          5.67267        4.32703       -3.16126
H          7.09171        3.36773       -3.57448
H          7.10464        4.43000       -2.13889
H         10.24543        3.09465       -2.26738
H         11.65850        2.10908       -2.65707
H         11.66508        3.16413       -1.21882
H         12.54201        0.77778       -0.57800
H         10.66350       -2.74408        2.01382
H         12.13610       -2.43229        2.88342
H         12.12823       -3.48706        1.44423
H         13.81199       -0.36512        0.25182
H         13.97755       -2.09697        0.41224
H         13.98607       -1.03955        1.85413
H          9.46563       -1.61797        1.19622
H          4.74610       -0.40201        0.32420

