%nprocs=1 
%mem=2GB 
#hf/6-31g(d,p) 

molecule_~/github/db_singletoxygen 2

0 1
C          1.11194        0.00511       -0.00676
C          2.44773        0.00511       -0.00676
H          0.55208       -0.25919        0.88486
H          0.55208        0.26941       -0.89838
H          3.00760       -0.25919        0.88486
H          3.00760        0.26941       -0.89838

