%nprocs=8 
%mem=16GB 
%chk=/home/mateus/github/db_singletoxygen/chk/molecule_7.chk 
#opt freq blyp/6-31g(d,p) 

molecule_7 Cc1oc2ccc3c(C)cc(=O)oc3c2c1C	


0 1
C          1.02859        0.05520       -0.08264
C          2.50229       -0.08238       -0.08279
O          3.24727        1.05981       -0.08326
C          4.55641        0.67857       -0.08302
C          5.65514        1.52926       -0.08338
C          6.92127        0.92380       -0.08228
C          7.09412       -0.46988       -0.08055
C          8.41317       -1.12464       -0.07722
C          9.68629       -0.33211       -0.06656
C          8.47173       -2.46656       -0.08128
C          7.28612       -3.33030       -0.08382
O          7.39142       -4.55342       -0.08460
O          6.06543       -2.68902       -0.08302
C          5.94730       -1.27861       -0.08205
C          4.65913       -0.70588       -0.08255
C          3.32174       -1.19726       -0.08246
C          2.88296       -2.61092       -0.08160
H          0.70104        1.09836       -0.08295
H          0.60870       -0.43539        0.80194
H          0.60853       -0.43598       -0.96681
H          5.54643        2.60727       -0.08422
H          7.77003        1.59978       -0.08328
H          9.54469        0.74808       -0.06179
H         10.28172       -0.56120       -0.95611
H         10.27052       -0.56917        0.82844
H          9.41617       -3.00041       -0.08039
H          3.72788       -3.30144       -0.08133
H          2.28420       -2.82108       -0.97238
H          2.28453       -2.82008        0.80964

