%nprocs=8 
%mem=16GB 
%chk=/home/mateus/github/db_singletoxygen/chk/molecule_23.chk 
#opt freq blyp/6-31g(d,p) 

molecule_23 COc1c2occc2c(OC)c2c(=O)cc(C)oc12	


0 1
C          1.09253       -0.07105        0.05028
O          2.52389       -0.11528        0.05614
C          3.07675       -1.12241        0.81749
C          4.14496       -0.84125        1.70174
O          4.72593        0.38653        1.92844
C          5.69681        0.21714        2.86269
C          5.75805       -1.09046        3.25194
C          4.77532       -1.79654        2.50673
C          4.34807       -3.13663        2.43856
O          4.86115       -4.18112        3.18349
C          5.89622       -3.92714        4.10954
C          3.31673       -3.45928        1.53154
C          2.84804       -4.85781        1.42552
O          3.27651       -5.80565        2.08240
C          1.77740       -5.12829        0.47911
C          1.28684       -4.13737       -0.26755
C          0.18080       -4.40932       -1.23636
O          1.74661       -2.83438       -0.21478
C          2.70541       -2.48431        0.72229
H          0.77401        0.78464       -0.55557
H          0.69687        0.05892        1.06237
H          0.63421       -0.94097       -0.42398
H          6.26293        1.08475        3.17038
H          6.44374       -1.47019        3.99273
H          6.16131       -4.86523        4.60140
H          5.55448       -3.24112        4.89098
H          6.79369       -3.57138        3.59399
H          1.42527       -6.14898        0.42980
H         -0.09741       -5.47081       -1.22396
H          0.48743       -4.16323       -2.25624
H         -0.71404       -3.83589       -0.97784

