%nprocs=8 
%mem=16GB 
%chk=/home/mateus/github/db_singletoxygen/chk/moleculeA_4.chk 
#opt freq blyp/6-31g(d,p) 

moleculeA_4 Cc1cc(=O)oc2c1ccc1c2cc(o1)C	


0 1
C          1.04103       -0.04456        0.06181
C          2.55192       -0.04926        0.06638
C          3.25474        1.08440        0.06341
C          4.72678        1.12381        0.06666
O          5.30079        2.20253        0.07773
O          5.41113       -0.09694        0.04403
C          4.74392       -1.36251       -0.00694
C          3.29204       -1.32502        0.06137
C          2.54097       -2.50576        0.06070
C          3.17412       -3.72072        0.07330
C          4.54596       -3.68279        0.03542
C          5.46916       -2.63463       -0.09055
C          7.00216       -3.26495       -0.41170
C          6.40868       -4.34743        0.26177
O          5.24432       -4.81267        0.11736
C          8.31595       -4.47405       -0.12355
H          0.62706        0.96877        0.06127
H          0.64661       -0.55095        0.95124
H          0.64830       -0.55025       -0.82942
H          2.76037        2.05187        0.05889
H          1.45598       -2.53075        0.05241
H          2.64788       -4.67094        0.07217
H          6.74529       -4.12451        1.25782
H          9.31291       -4.05809        0.01451
H          8.23527       -5.24326       -0.91501
H          8.21570       -5.13215        0.83606

