%nprocs=8 
%mem=16GB 
%chk=/home/mateus/github/db_singletoxygen/chk/molecule_3.chk 
#opt freq blyp/6-31g(d,p) 

molecule_3 Cc1cc(=O)oc2c1ccc1c2c(co1)C	


0 1
C          0.90387       -0.11626       -0.04856
C          2.40122       -0.12009       -0.04837
C          3.10838       -1.25858       -0.04845
C          4.57618       -1.29233       -0.04761
O          5.18215       -2.35991       -0.04812
O          5.22194       -0.07096       -0.04578
C          4.51561        1.15549       -0.04609
C          3.11483        1.16210       -0.04787
C          2.43824        2.39133       -0.04869
C          3.11626        3.61461       -0.04893
C          4.50495        3.55273       -0.04732
C          5.23110        2.36794       -0.04484
C          6.60571        2.74955       -0.04027
C          6.60976        4.13047       -0.04413
O          5.34438        4.62263       -0.04766
C          7.78648        1.85628       -0.03179
H          0.49078       -1.12847       -0.04855
H          0.52403        0.39543       -0.93993
H          0.52395        0.39542        0.84280
H          2.62986       -2.23093       -0.04893
H          1.35179        2.42653       -0.04929
H          2.58192        4.55689       -0.04982
H          7.39698        4.87218       -0.04387
H          7.50048        0.80195       -0.02982
H          8.39128        2.03369        0.86205
H          8.40097        2.02836       -0.91993

